
Value of objective function: 311.00000000

Actual values of the variables:
C1                              1
C2                              1
C3                              1
C4                              0
C5                              0
C6                              0
C7                              0
C8                              0
C9                              0
C10                             0
C11                             0
C12                             0
C13                             0
C14                             0
C15                             0
C16                             0
C17                             0
C18                             0
C19                             0
C20                             0
C21                             0
C22                             0
C23                             0
C24                             1
C25                             0
C26                             0
C27                             0
C28                             0
C29                             0
C30                             0
C31                             0
C32                             0
C33                             0
C34                             0
C35                             0
C36                             0
C37                             0
C38                             0
C39                             0
C40                             1
C41                             1
C42                             0
C43                             0
C44                             0
C45                             0
C46                             0
C47                             0
C48                             0
C49                             0
C50                             0
C51                             0
C52                             0
C53                             0
C54                             0
C55                             0
C56                             0
C57                             0
C58                             1
C59                             1
C60                             0
C61                             0
C62                             0
C63                             0
C64                             0
C65                             0
C66                             0
C67                             0
C68                             0
C69                             0
C70                             0
C71                             0
C72                             0
C73                             1
C74                             1
C75                             0
C76                             0
C77                             0
C78                             0
C79                             0
C80                             0
C81                             0
C82                             0
C83                             0
C84                             0
C85                             0
C86                             0
C87                             0
C88                             0
C89                             0
C90                             0
C91                             0
C92                             0
C93                             1
C94                             0
C95                             0
C96                             0
C97                             0
C98                             0
C99                             0
C100                            0
C101                            0
C102                            0
C103                            0
C104                            0
C105                            0
C106                            0
C107                            0
C108                            0
C109                            0
C110                            0
C111                            0
C112                            0
C113                            0
C114                            1
C115                            1
C116                            0
C117                            0
C118                            0
C119                            0
C120                            0
C121                            0
C122                            0
C123                            0
C124                            0
C125                            0
C126                            0
C127                            0
C128                            0
C129                            1
C130                            1
C131                            1
C132                            0
C133                            0
C134                            0
C135                            0
C136                            0
C137                            0
C138                            0
C139                            0
C140                            0
C141                            0
C142                            0
C143                            0
C144                            0
C145                            1
C146                            1
C147                            0
C148                            0
C149                            0
C150                            0
C151                            0
C152                            0
C153                            0
C154                            0
C155                            0
C156                            0
C157                            0
C158                            0
C159                            0
C160                            0
C161                            0
C162                            0
C163                            1
C164                            1
C165                            0
C166                            0
C167                            0
C168                            0
C169                            0
C170                            0
C171                            0
C172                            0
C173                            0
C174                            0
C175                            0
C176                            0
C177                            0
C178                            0
C179                            0
C180                            0
C181                            0
C182                            0
C183                            0
C184                            0
C185                            0
C186                            0
C187                            0
C188                            0
C189                            0
C190                            0
C191                            0
C192                            0
C193                            0
C194                            0
C195                            0
C196                            0
C197                            0
C198                            0
C199                            0
C200                            0
C201                            0
C202                            1
C203                            0
C204                            0
C205                            0
C206                            0
C207                            0
C208                            0
C209                            0
C210                            0
C211                            0
C212                            0
C213                            0
C214                            0
C215                            0
C216                            0
C217                            0
C218                            0
C219                            0
C220                            1
C221                            0
C222                            0
C223                            0
C224                            0
C225                            0
C226                            0
C227                            0
C228                            0
C229                            0
C230                            0
C231                            0
C232                            0
C233                            0
C234                            0
C235                            1
C236                            0
C237                            0
C238                            0
C239                            0
C240                            0
C241                            0
C242                            0
C243                            0
C244                            0
C245                            0
C246                            0
C247                            0
C248                            0
C249                            0
C250                            0
C251                            0
C252                            0
C253                            0
C254                            0
C255                            0
C256                            0
C257                            0
C258                            0
C259                            0
C260                            0
C261                            0
C262                            0
C263                            0
C264                            0
C265                            0
C266                            0
C267                            0
C268                            0
C269                            0
C270                            0
C271                            0
C272                            0
C273                            0
C274                            0
C275                            0
C276                            1
C277                            0
C278                            0
C279                            0
C280                            0
C281                            0
C282                            0
C283                            0
C284                            0
C285                            0
C286                            0
C287                            0
C288                            0
C289                            0
C290                            0
C291                            1
C292                            1
C293                            0
C294                            0
C295                            0
C296                            0
C297                            0
C298                            0
C299                            0
C300                            0
C301                            0
C302                            0
C303                            0
C304                            0
C305                            0
C306                            0
C307                            1
C308                            0
C309                            0
C310                            0
C311                            0
C312                            0
C313                            0
C314                            0
C315                            0
C316                            0
C317                            0
C318                            0
C319                            0
C320                            0
C321                            0
C322                            0
C323                            0
C324                            0

Actual values of the constraints:
R1                              0
R2                              0
R3                              0
R4                              0
R5                              0
R6                              0
R7                              0
R8                              0
R9                              0
R10                             0
R11                             0
R12                             0
R13                             0
R14                             0
R15                             0
R16                             0
R17                             0
R18                             0
R19                             0
R20                             0
R21                             0
R22                             0
R23                             0
R24                             0
R25                             0
R26                             0
R27                             0
R28                             0
R29                             0
R30                             0
R31                             0
R32                             0
R33                             0
R34                             0
R35                             0
R36                             0
R37                             0
R38                             0
R39                             0
R40                             0
R41                             0
R42                             0
R43                             0
R44                             0
R45                             0
R46                             0
R47                             0
R48                             0
R49                             0
R50                             0
R51                             0
R52                             0
R53                             0
R54                             0
R55                             0
R56                             0
R57                             0
R58                             0
R59                             0
R60                             0
R61                             0
R62                             0
R63                             0
R64                             0
R65                             0
R66                             0
R67                             0
R68                             0
R69                             0
R70                             0
R71                             0
R72                             0
R73                             0
R74                             0
R75                             0
R76                             0
R77                             0
R78                             0
R79                             0
R80                             0
R81                             0
R82                             0
R83                             0
R84                             0
R85                             0
R86                             0
R87                             0
R88                             0
R89                             0
R90                             0
R91                             0
R92                             0
R93                             0
R94                             0
R95                             0
R96                             0
R97                             0
R98                             0
R99                             0
R100                            0
R101                            0
R102                            0
R103                            0
R104                            0
R105                            0
R106                            0
R107                            0
R108                            0
R109                            0
R110                            0
R111                            0
R112                            0
R113                            0
R114                            0
R115                            0
R116                            0
R117                            0
R118                            0
R119                            0
R120                            0
R121                            0
R122                            0
R123                            0
R124                            0
R125                            0
R126                            0
R127                            0
R128                            0
R129                            0
R130                            0
R131                            0
R132                            0
R133                            0
R134                            0
R135                            0
R136                            0
R137                            0
R138                            0
R139                            0
R140                            0
R141                            0
R142                            0
R143                            0
R144                            0
R145                            0
R146                            0
R147                            0
R148                            0
R149                            0
R150                            0
R151                            0
R152                            0
R153                            0
R154                            0
R155                            0
R156                            0
R157                            0
R158                            0
R159                            0
R160                            0
R161                            0
R162                            0
R163                            0
R164                            0
R165                            0
R166                            0
R167                            0
R168                            0
R169                            0
R170                            0
R171                            0
R172                            0
R173                            0
R174                            0
R175                            0
R176                            0
R177                            0
R178                            0
R179                            0
R180                            0
R181                            0
R182                            0
R183                            0
R184                            0
R185                            0
R186                            0
R187                            0
R188                            0
R189                            0
R190                            0
R191                            0
R192                            0
R193                            0
R194                            0
R195                            0
R196                            0
R197                            0
R198                            0
R199                            0
R200                            0
R201                            0
R202                            0
R203                            0
R204                            0
R205                            0
R206                            0
R207                            0
R208                            0
R209                            0
R210                            0
R211                            0
R212                            0
R213                            0
R214                            0
R215                            0
R216                            0
R217                            0
R218                            0
R219                            0
R220                            0
R221                            0
R222                            0
R223                            0
R224                            0
R225                            0
R226                            0
R227                            0
R228                            0
R229                            0
R230                            0
R231                            0
R232                            0
R233                            0
R234                            0
R235                            0
R236                            0
R237                            0
R238                            0
R239                            0
R240                            0
R241                            0
R242                            0
R243                            0
R244                            0
R245                            0
R246                            0
R247                            0
R248                            0
R249                            0
R250                            0
R251                            0
R252                            0
R253                            0
R254                            0
R255                            0
R256                            0
R257                            0
R258                            0
R259                            0
R260                            0
R261                            0
R262                            0
R263                            0
R264                            0
R265                            0
R266                            0
R267                            0
R268                            0
R269                            0
R270                            0
R271                            0
R272                            0
R273                            0
R274                            0
R275                            0
R276                            0
R277                            0
R278                            0
R279                            0
R280                            3
R281                            1
R282                            2
R283                            2
R284                            2
R285                            1
R286                            2
R287                            3
R288                            2
R289                            1
R290                            1
R291                            1
R292                            1
R293                            1
R294                            1
R295                            0
R296                            0
R297                            0
R298                            0
R299                            0
R300                            0
R301                            0
R302                            0
R303                            0
R304                            0
R305                            0
R306                            0
R307                            1
R308                            1
R309                            1
R310                            1
R311                            1
R312                            0
R313                            0
R314                            0
R315                            0
R316                            0
R317                            0
R318                            0
R319                            0
R320                            0
R321                            0
R322                            0
R323                            0
R324                            0
R325                            1
R326                            1
R327                            1
R328                            1
R329                            1
R330                            1
R331                            1
R332                            0
R333                            0
R334                            0
R335                            0
R336                            0
R337                            0
R338                            0
R339                            0
R340                            0
R341                            0
R342                            0
R343                            1
R344                            1
R345                            1
R346                            1
R347                            1
R348                            1
R349                            1
R350                            0
R351                            0
R352                            0
R353                            0
R354                            0
R355                            0
R356                            0
R357                            0
R358                            0
R359                            0
R360                            0
R361                            1
R362                            1
R363                            1
R364                            1
R365                            1
R366                            1
R367                            0
R368                            0
R369                            0
R370                            0
R371                            0
R372                            0
R373                            0
R374                            0
R375                            0
R376                            0
R377                            0
R378                            0
R379                            1
R380                            1
R381                            1
R382                            1
R383                            1
R384                            0
R385                            0
R386                            0
R387                            0
R388                            0
R389                            0
R390                            0
R391                            0
R392                            0
R393                            0
R394                            0
R395                            0
R396                            0
R397                            0
R398                            0
R399                            1
R400                            0
R401                            0
R402                            0
R403                            0
R404                            0
R405                            0
R406                            0
R407                            0
R408                            0
R409                            0
R410                            0
R411                            0
R412                            0
R413                            0
R414                            0
R415                            0
R416                            0
R417                            0
R418                            0
R419                            1
R420                            1
R421                            0
R422                            0
R423                            0
R424                            0
R425                            0
R426                            0
R427                            0
R428                            0
R429                            0
R430                            0
R431                            0
R432                            0
R433                            0
R434                            0
R435                            1
R436                            0
R437                            1
R438                            0
R439                            0
R440                            0
R441                            0
R442                            0
R443                            0
R444                            0
R445                            0
R446                            0
R447                            0
R448                            0
R449                            0
R450                            0
R451                            0
R452                            0
R453                            1
R454                            0
R455                            1
R456                            0
R457                            0
R458                            0
R459                            0
R460                            0
R461                            0
R462                            0
R463                            0
R464                            0
R465                            0
R466                            0
R467                            0
R468                            0
R469                            0
R470                            1
R471                            0
R472                            0
R473                            0
R474                            0
R475                            0
R476                            0
R477                            0
R478                            0
R479                            0
R480                            0
R481                            0
R482                            0
R483                            0
R484                            0
R485                            0
R486                            0
R487                            0
R488                            1
R489                            1
R490                            0
R491                            0
R492                            0
R493                            0
R494                            0
R495                            0
R496                            0
R497                            0
R498                            0
R499                            0
R500                            0
R501                            0
R502                            0
R503                            0
R504                            0
R505                            0
R506                            0
R507                            0
R508                            0
R509                            1
R510                            0
R511                            1
R512                            0
R513                            0
R514                            0
R515                            0
R516                            0
R517                            0
R518                            0
R519                            0
R520                            0
R521                            0
R522                            0
R523                            0
R524                            1
R525                            0
R526                            0
R527                            1
R528                            0
R529                            0
R530                            0
R531                            0
R532                            0
R533                            0
R534                            0
R535                            0
R536                            0
R537                            0
R538                            0
R539                            0
R540                            0
R541                            0
R542                            1
R543                            0
R544                            0
R545                            0
R546                            0
R547                            0
R548                            0
R549                            0
R550                            0
R551                            0
R552                            0
R553                            0
R554                            0
R555                            0
R556                            0
R557                            0
R558                            0
